src/asp/benchmarks/large3.lp
citta(corciano).
citta(narni).
citta(castiglione_del_lago).
citta(citta_di_castello).
citta(spoleto).
citta(bastia_umbra).
citta(terni).
citta(perugia).
citta(assisi).
citta(umbertide).
citta(gubbio).
citta(foligno).
citta(amelia).
citta(gualdo_tardino).
citta(orvieto).
citta(san_giustino).
citta(todi).
citta(marsciano).
citta(magione).

richiesta(corciano, strade, 144).
richiesta(corciano, fiumi, 52).
richiesta(corciano, scuole, 21).
richiesta(corciano, parchi, 80).
richiesta(corciano, energia, 114).

richiesta(narni, strade, 16).
richiesta(narni, fiumi, 200).
richiesta(narni, scuole, 81).
richiesta(narni, parchi, 74).
richiesta(narni, energia, 3).

richiesta(castiglione_del_lago, strade, 99).
richiesta(castiglione_del_lago, fiumi, 200).
richiesta(castiglione_del_lago, scuole, 97).
richiesta(castiglione_del_lago, parchi, 141).
richiesta(castiglione_del_lago, energia, 11).

richiesta(citta_di_castello, strade, 40).
richiesta(citta_di_castello, fiumi, 115).
richiesta(citta_di_castello, scuole, 242).
richiesta(citta_di_castello, parchi, 140).
richiesta(citta_di_castello, energia, 7).

richiesta(spoleto, strade, 146).
richiesta(spoleto, fiumi, 103).
richiesta(spoleto, scuole, 38).
richiesta(spoleto, parchi, 15).
richiesta(spoleto, energia, 6).

richiesta(bastia_umbra, strade, 64).
richiesta(bastia_umbra, fiumi, 242).
richiesta(bastia_umbra, scuole, 11).
richiesta(bastia_umbra, parchi, 18).
richiesta(bastia_umbra, energia, 14).

richiesta(terni, strade, 22).
richiesta(terni, fiumi, 81).
richiesta(terni, scuole, 282).
richiesta(terni, parchi, 117).
richiesta(terni, energia, 162).

richiesta(perugia, strade, 41).
richiesta(perugia, fiumi, 89).
richiesta(perugia, scuole, 104).
richiesta(perugia, parchi, 9).
richiesta(perugia, energia, 12).

richiesta(assisi, strade, 272).
richiesta(assisi, fiumi, 24).
richiesta(assisi, scuole, 17).
richiesta(assisi, parchi, 24).
richiesta(assisi, energia, 22).

richiesta(umbertide, strade, 122).
richiesta(umbertide, fiumi, 22).
richiesta(umbertide, scuole, 19).
richiesta(umbertide, parchi, 214).
richiesta(umbertide, energia, 67).

richiesta(gubbio, strade, 16).
richiesta(gubbio, fiumi, 195).
richiesta(gubbio, scuole, 46).
richiesta(gubbio, parchi, 100).
richiesta(gubbio, energia, 205).

richiesta(foligno, strade, 35).
richiesta(foligno, fiumi, 115).
richiesta(foligno, scuole, 187).
richiesta(foligno, parchi, 60).
richiesta(foligno, energia, 49).

richiesta(amelia, strade, 148).
richiesta(amelia, fiumi, 48).
richiesta(amelia, scuole, 20).
richiesta(amelia, parchi, 266).
richiesta(amelia, energia, 87).

richiesta(gualdo_tardino, strade, 22).
richiesta(gualdo_tardino, fiumi, 128).
richiesta(gualdo_tardino, scuole, 43).
richiesta(gualdo_tardino, parchi, 72).
richiesta(gualdo_tardino, energia, 25).

richiesta(orvieto, strade, 397).
richiesta(orvieto, fiumi, 735).
richiesta(orvieto, scuole, 21).
richiesta(orvieto, parchi, 87).
richiesta(orvieto, energia, 267).

richiesta(san_giustino, strade, 103).
richiesta(san_giustino, fiumi, 11).
richiesta(san_giustino, scuole, 308).
richiesta(san_giustino, parchi, 230).
richiesta(san_giustino, energia, 10).

richiesta(todi, strade, 9).
richiesta(todi, fiumi, 322).
richiesta(todi, scuole, 407).
richiesta(todi, parchi, 124).
richiesta(todi, energia, 20).

richiesta(marsciano, strade, 16).
richiesta(marsciano, fiumi, 8).
richiesta(marsciano, scuole, 103).
richiesta(marsciano, parchi, 147).
richiesta(marsciano, energia, 69).

richiesta(magione, strade, 127).
richiesta(magione, fiumi, 15).
richiesta(magione, scuole, 46).
richiesta(magione, parchi, 125).
richiesta(magione, energia, 119).

